10
0   3   23   33   16   18   11   31   19   42   
3   0   29   30   31   51   23   48   31   24   
23   29   0   38   21   41   62   10   24   7   
33   30   38   0   45   21   32   34   6   36   
16   31   21   45   0   19   20   20   30   34   
18   51   41   21   19   0   29   25   40   31   
11   23   62   32   20   29   0   14   32   45   
31   48   10   34   20   25   14   0   35   14   
19   31   24   6   30   40   32   35   0   36   
42   24   7   36   34   31   45   14   36   0   
